p cnf 831 2828
1 -2 0
2 -1 0
3 -4 0
4 -3 0
5 -6 0
6 -5 0
7 -8 0
8 -7 0
9 -10 0
10 -9 0
11 -12 0
12 -11 0
13 -14 0
14 -13 0
15 -16 0
16 -15 0
17 -18 0
18 -17 0
19 -20 0
20 -19 0
21 -22 0
22 -21 0
23 -24 0
24 -23 0
25 -26 0
26 -25 0
27 -28 0
28 -27 0
29 -30 0
30 -29 0
31 -32 0
32 -31 0
33 -34 0
34 -33 0
35 -36 0
36 -35 0
37 -38 0
38 -37 0
39 -40 0
40 -39 0
41 -42 0
42 -41 0
43 -44 0
44 -43 0
45 -46 0
46 -45 0
47 -48 0
48 -47 0
49 -50 0
50 -49 0
51 52 0
53 52 0
-51 -53 -52 0
-54 52 -55 0
54 -52 -55 0
55 -52 -54 0
54 52 55 0
-55 0
56 57 0
58 57 0
-56 -58 -57 0
-53 57 -59 0
53 -57 -59 0
59 -57 -53 0
53 57 59 0
-59 0
56 60 0
61 60 0
-56 -61 -60 0
-58 60 -62 0
58 -60 -62 0
62 -60 -58 0
58 60 62 0
-62 0
63 64 0
65 64 0
-63 -65 -64 0
-66 64 -67 0
66 -64 -67 0
67 -64 -66 0
66 64 67 0
-67 0
68 69 0
70 69 0
-68 -70 -69 0
-65 69 -71 0
65 -69 -71 0
71 -69 -65 0
65 69 71 0
-71 0
72 73 0
74 73 0
-72 -74 -73 0
-70 73 -75 0
70 -73 -75 0
75 -73 -70 0
70 73 75 0
-75 0
76 77 0
78 77 0
-76 -78 -77 0
-74 77 -79 0
74 -77 -79 0
79 -77 -74 0
74 77 79 0
-79 0
76 80 0
81 80 0
-76 -81 -80 0
-78 80 -82 0
78 -80 -82 0
82 -80 -78 0
78 80 82 0
-82 0
83 84 0
85 84 0
-83 -85 -84 0
-86 84 -87 0
86 -84 -87 0
87 -84 -86 0
86 84 87 0
-87 0
88 89 0
90 89 0
-88 -90 -89 0
-85 89 -91 0
85 -89 -91 0
91 -89 -85 0
85 89 91 0
-91 0
92 93 0
94 93 0
-92 -94 -93 0
-90 93 -95 0
90 -93 -95 0
95 -93 -90 0
90 93 95 0
-95 0
96 97 0
98 97 0
-96 -98 -97 0
-94 97 -99 0
94 -97 -99 0
99 -97 -94 0
94 97 99 0
-99 0
100 101 0
102 101 0
-100 -102 -101 0
-98 101 -103 0
98 -101 -103 0
103 -101 -98 0
98 101 103 0
-103 0
92 104 0
96 104 0
100 104 0
105 104 0
-106 0
-102 104 -107 0
102 -104 -107 0
107 -104 -102 0
102 104 107 0
-107 0
108 109 0
110 109 0
-108 -110 -109 0
-111 109 -112 0
111 -109 -112 0
112 -109 -111 0
111 109 112 0
-112 0
113 114 0
115 114 0
-113 -115 -114 0
-110 114 -116 0
110 -114 -116 0
116 -114 -110 0
110 114 116 0
-116 0
117 118 0
119 118 0
-117 -119 -118 0
-115 118 -120 0
115 -118 -120 0
120 -118 -115 0
115 118 120 0
-120 0
121 122 0
123 122 0
-121 -123 -122 0
-119 122 -124 0
119 -122 -124 0
124 -122 -119 0
119 122 124 0
-124 0
125 126 0
127 126 0
-125 -127 -126 0
-123 126 -128 0
123 -126 -128 0
128 -126 -123 0
123 126 128 0
-128 0
117 129 0
121 129 0
125 129 0
130 129 0
-131 0
-127 129 -132 0
127 -129 -132 0
132 -129 -127 0
127 129 132 0
-132 0
133 134 0
135 134 0
-133 -135 -134 0
-136 134 -137 0
136 -134 -137 0
137 -134 -136 0
136 134 137 0
-137 0
138 139 0
140 139 0
-138 -140 -139 0
-135 139 -141 0
135 -139 -141 0
141 -139 -135 0
135 139 141 0
-141 0
142 143 0
144 143 0
-142 -144 -143 0
-140 143 -145 0
140 -143 -145 0
145 -143 -140 0
140 143 145 0
-145 0
144 -146 0
146 -144 0
147 148 0
149 148 0
-147 -149 -148 0
-150 148 -151 0
150 -148 -151 0
151 -148 -150 0
150 148 151 0
-151 0
152 153 0
154 153 0
-152 -154 -153 0
-149 153 -155 0
149 -153 -155 0
155 -153 -149 0
149 153 155 0
-155 0
156 157 0
158 157 0
-156 -158 -157 0
-154 157 -159 0
154 -157 -159 0
159 -157 -154 0
154 157 159 0
-159 0
160 161 0
162 161 0
-160 -162 -161 0
-158 161 -163 0
158 -161 -163 0
163 -161 -158 0
158 161 163 0
-163 0
164 165 0
166 165 0
-164 -166 -165 0
-162 165 -167 0
162 -165 -167 0
167 -165 -162 0
162 165 167 0
-167 0
160 168 0
164 168 0
169 168 0
-160 -164 -169 -168 0
-166 168 -170 0
166 -168 -170 0
170 -168 -166 0
166 168 170 0
-170 0
171 172 0
173 172 0
-171 -173 -172 0
-174 172 -175 0
174 -172 -175 0
175 -172 -174 0
174 172 175 0
-175 0
176 177 0
178 177 0
-176 -178 -177 0
-173 177 -179 0
173 -177 -179 0
179 -177 -173 0
173 177 179 0
-179 0
180 181 0
182 181 0
-180 -182 -181 0
-178 181 -183 0
178 -181 -183 0
183 -181 -178 0
178 181 183 0
-183 0
184 185 0
186 185 0
-184 -186 -185 0
-182 185 -187 0
182 -185 -187 0
187 -185 -182 0
182 185 187 0
-187 0
186 -188 0
188 -186 0
189 190 0
191 190 0
-189 -191 -190 0
-192 190 -193 0
192 -190 -193 0
193 -190 -192 0
192 190 193 0
-193 0
194 195 0
196 195 0
-194 -196 -195 0
-191 195 -197 0
191 -195 -197 0
197 -195 -191 0
191 195 197 0
-197 0
198 199 0
200 199 0
-198 -200 -199 0
-196 199 -201 0
196 -199 -201 0
201 -199 -196 0
196 199 201 0
-201 0
202 203 0
204 203 0
-202 -204 -203 0
-200 203 -205 0
200 -203 -205 0
205 -203 -200 0
200 203 205 0
-205 0
206 207 0
208 207 0
-206 -208 -207 0
-204 207 -209 0
204 -207 -209 0
209 -207 -204 0
204 207 209 0
-209 0
202 210 0
206 210 0
211 210 0
-202 -206 -211 -210 0
-208 210 -212 0
208 -210 -212 0
212 -210 -208 0
208 210 212 0
-212 0
213 214 0
215 214 0
-213 -215 -214 0
-216 214 -217 0
216 -214 -217 0
217 -214 -216 0
216 214 217 0
-217 0
218 219 0
220 219 0
-218 -220 -219 0
-215 219 -221 0
215 -219 -221 0
221 -219 -215 0
215 219 221 0
-221 0
222 223 0
224 223 0
-222 -224 -223 0
-220 223 -225 0
220 -223 -225 0
225 -223 -220 0
220 223 225 0
-225 0
226 227 0
228 227 0
-226 -228 -227 0
-224 227 -229 0
224 -227 -229 0
229 -227 -224 0
224 227 229 0
-229 0
230 231 0
232 231 0
-230 -232 -231 0
-228 231 -233 0
228 -231 -233 0
233 -231 -228 0
228 231 233 0
-233 0
234 235 0
236 235 0
-234 -236 -235 0
-232 235 -237 0
232 -235 -237 0
237 -235 -232 0
232 235 237 0
-237 0
238 239 0
240 239 0
-238 -240 -239 0
-236 239 -241 0
236 -239 -241 0
241 -239 -236 0
236 239 241 0
-241 0
230 242 0
234 242 0
238 242 0
243 242 0
-244 0
-240 242 -245 0
240 -242 -245 0
245 -242 -240 0
240 242 245 0
-245 0
246 247 0
248 247 0
-246 -248 -247 0
-249 247 -250 0
249 -247 -250 0
250 -247 -249 0
249 247 250 0
-250 0
251 252 0
253 252 0
-251 -253 -252 0
-248 252 -254 0
248 -252 -254 0
254 -252 -248 0
248 252 254 0
-254 0
255 256 0
257 256 0
-255 -257 -256 0
-253 256 -258 0
253 -256 -258 0
258 -256 -253 0
253 256 258 0
-258 0
259 260 0
261 260 0
-259 -261 -260 0
-257 260 -262 0
257 -260 -262 0
262 -260 -257 0
257 260 262 0
-262 0
259 263 0
264 263 0
-259 -264 -263 0
-261 263 -265 0
261 -263 -265 0
265 -263 -261 0
261 263 265 0
-265 0
266 267 0
268 267 0
-266 -268 -267 0
-269 267 -270 0
269 -267 -270 0
270 -267 -269 0
269 267 270 0
-270 0
266 271 0
272 271 0
-266 -272 -271 0
-268 271 -273 0
268 -271 -273 0
273 -271 -268 0
268 271 273 0
-273 0
274 275 0
276 275 0
-274 -276 -275 0
-277 275 -278 0
277 -275 -278 0
278 -275 -277 0
277 275 278 0
-278 0
279 280 0
281 280 0
-279 -281 -280 0
-276 280 -282 0
276 -280 -282 0
282 -280 -276 0
276 280 282 0
-282 0
283 284 0
285 284 0
-283 -285 -284 0
-281 284 -286 0
281 -284 -286 0
286 -284 -281 0
281 284 286 0
-286 0
287 288 0
289 288 0
-287 -289 -288 0
-285 288 -290 0
285 -288 -290 0
290 -288 -285 0
285 288 290 0
-290 0
283 291 0
287 291 0
292 291 0
-283 -287 -292 -291 0
-289 291 -293 0
289 -291 -293 0
293 -291 -289 0
289 291 293 0
-293 0
294 295 0
296 295 0
-294 -296 -295 0
-297 295 -298 0
297 -295 -298 0
298 -295 -297 0
297 295 298 0
-298 0
299 300 0
301 300 0
-299 -301 -300 0
-296 300 -302 0
296 -300 -302 0
302 -300 -296 0
296 300 302 0
-302 0
303 304 0
305 304 0
-303 -305 -304 0
-301 304 -306 0
301 -304 -306 0
306 -304 -301 0
301 304 306 0
-306 0
307 308 0
309 308 0
-307 -309 -308 0
-305 308 -310 0
305 -308 -310 0
310 -308 -305 0
305 308 310 0
-310 0
311 312 0
313 312 0
-311 -313 -312 0
-309 312 -314 0
309 -312 -314 0
314 -312 -309 0
309 312 314 0
-314 0
307 315 0
311 315 0
316 315 0
-307 -311 -316 -315 0
-313 315 -317 0
313 -315 -317 0
317 -315 -313 0
313 315 317 0
-317 0
318 319 0
320 319 0
-318 -320 -319 0
-321 319 -322 0
321 -319 -322 0
322 -319 -321 0
321 319 322 0
-322 0
323 324 0
325 324 0
-323 -325 -324 0
-320 324 -326 0
320 -324 -326 0
326 -324 -320 0
320 324 326 0
-326 0
327 328 0
329 328 0
-327 -329 -328 0
-325 328 -330 0
325 -328 -330 0
330 -328 -325 0
325 328 330 0
-330 0
331 332 0
333 332 0
-331 -333 -332 0
-329 332 -334 0
329 -332 -334 0
334 -332 -329 0
329 332 334 0
-334 0
331 335 0
336 335 0
-331 -336 -335 0
-333 335 -337 0
333 -335 -337 0
337 -335 -333 0
333 335 337 0
-337 0
338 339 0
340 339 0
-338 -340 -339 0
-341 339 -342 0
341 -339 -342 0
342 -339 -341 0
341 339 342 0
-342 0
343 344 0
345 344 0
-343 -345 -344 0
-340 344 -346 0
340 -344 -346 0
346 -344 -340 0
340 344 346 0
-346 0
347 348 0
349 348 0
-347 -349 -348 0
-345 348 -350 0
345 -348 -350 0
350 -348 -345 0
345 348 350 0
-350 0
351 352 0
353 352 0
-351 -353 -352 0
-349 352 -354 0
349 -352 -354 0
354 -352 -349 0
349 352 354 0
-354 0
355 356 0
357 356 0
-355 -357 -356 0
-353 356 -358 0
353 -356 -358 0
358 -356 -353 0
353 356 358 0
-358 0
359 360 0
361 360 0
-359 -361 -360 0
-357 360 -362 0
357 -360 -362 0
362 -360 -357 0
357 360 362 0
-362 0
355 363 0
359 363 0
364 363 0
-355 -359 -364 -363 0
-361 363 -365 0
361 -363 -365 0
365 -363 -361 0
361 363 365 0
-365 0
366 367 0
368 367 0
-366 -368 -367 0
-369 367 -370 0
369 -367 -370 0
370 -367 -369 0
369 367 370 0
-370 0
371 372 0
373 372 0
-371 -373 -372 0
-368 372 -374 0
368 -372 -374 0
374 -372 -368 0
368 372 374 0
-374 0
375 376 0
377 376 0
-375 -377 -376 0
-373 376 -378 0
373 -376 -378 0
378 -376 -373 0
373 376 378 0
-378 0
379 380 0
381 380 0
-379 -381 -380 0
-377 380 -382 0
377 -380 -382 0
382 -380 -377 0
377 380 382 0
-382 0
383 384 0
385 384 0
-383 -385 -384 0
-381 384 -386 0
381 -384 -386 0
386 -384 -381 0
381 384 386 0
-386 0
387 388 0
389 388 0
-387 -389 -388 0
-385 388 -390 0
385 -388 -390 0
390 -388 -385 0
385 388 390 0
-390 0
391 392 0
393 392 0
-391 -393 -392 0
-389 392 -394 0
389 -392 -394 0
394 -392 -389 0
389 392 394 0
-394 0
383 395 0
387 395 0
391 395 0
396 395 0
-397 0
-393 395 -398 0
393 -395 -398 0
398 -395 -393 0
393 395 398 0
-398 0
399 400 0
401 400 0
-399 -401 -400 0
-402 400 -403 0
402 -400 -403 0
403 -400 -402 0
402 400 403 0
-403 0
404 405 0
406 405 0
-404 -406 -405 0
-401 405 -407 0
401 -405 -407 0
407 -405 -401 0
401 405 407 0
-407 0
408 409 0
410 409 0
-408 -410 -409 0
-406 409 -411 0
406 -409 -411 0
411 -409 -406 0
406 409 411 0
-411 0
412 413 0
414 413 0
-412 -414 -413 0
-410 413 -415 0
410 -413 -415 0
415 -413 -410 0
410 413 415 0
-415 0
416 417 0
418 417 0
-416 -418 -417 0
-414 417 -419 0
414 -417 -419 0
419 -417 -414 0
414 417 419 0
-419 0
408 420 0
412 420 0
416 420 0
421 420 0
-422 0
-418 420 -423 0
418 -420 -423 0
423 -420 -418 0
418 420 423 0
-423 0
424 425 0
426 425 0
-424 -426 -425 0
-427 425 -428 0
427 -425 -428 0
428 -425 -427 0
427 425 428 0
-428 0
429 430 0
431 430 0
-429 -431 -430 0
-426 430 -432 0
426 -430 -432 0
432 -430 -426 0
426 430 432 0
-432 0
433 434 0
435 434 0
-433 -435 -434 0
-431 434 -436 0
431 -434 -436 0
436 -434 -431 0
431 434 436 0
-436 0
437 438 0
439 438 0
-437 -439 -438 0
-435 438 -440 0
435 -438 -440 0
440 -438 -435 0
435 438 440 0
-440 0
441 442 0
443 442 0
-441 -443 -442 0
-439 442 -444 0
439 -442 -444 0
444 -442 -439 0
439 442 444 0
-444 0
437 445 0
441 445 0
446 445 0
-437 -441 -446 -445 0
-443 445 -447 0
443 -445 -447 0
447 -445 -443 0
443 445 447 0
-447 0
448 449 0
450 449 0
-448 -450 -449 0
-451 449 -452 0
451 -449 -452 0
452 -449 -451 0
451 449 452 0
-452 0
453 454 0
455 454 0
-453 -455 -454 0
-450 454 -456 0
450 -454 -456 0
456 -454 -450 0
450 454 456 0
-456 0
457 458 0
459 458 0
-457 -459 -458 0
-455 458 -460 0
455 -458 -460 0
460 -458 -455 0
455 458 460 0
-460 0
448 461 0
453 461 0
457 461 0
462 461 0
-463 0
-459 461 -464 0
459 -461 -464 0
464 -461 -459 0
459 461 464 0
-464 0
465 466 0
467 466 0
-465 -467 -466 0
-468 466 -469 0
468 -466 -469 0
469 -466 -468 0
468 466 469 0
-469 0
470 471 0
472 471 0
-470 -472 -471 0
-467 471 -473 0
467 -471 -473 0
473 -471 -467 0
467 471 473 0
-473 0
472 -474 0
474 -472 0
475 476 0
477 476 0
-475 -477 -476 0
-478 476 -479 0
478 -476 -479 0
479 -476 -478 0
478 476 479 0
-479 0
480 481 0
482 481 0
-480 -482 -481 0
-477 481 -483 0
477 -481 -483 0
483 -481 -477 0
477 481 483 0
-483 0
484 485 0
486 485 0
-484 -486 -485 0
-482 485 -487 0
482 -485 -487 0
487 -485 -482 0
482 485 487 0
-487 0
486 -488 0
488 -486 0
489 490 0
491 490 0
-489 -491 -490 0
-492 490 -493 0
492 -490 -493 0
493 -490 -492 0
492 490 493 0
-493 0
491 -494 0
494 -491 0
495 496 0
497 496 0
-495 -497 -496 0
-498 496 -499 0
498 -496 -499 0
499 -496 -498 0
498 496 499 0
-499 0
500 501 0
502 501 0
-500 -502 -501 0
-497 501 -503 0
497 -501 -503 0
503 -501 -497 0
497 501 503 0
-503 0
502 -504 0
504 -502 0
505 506 0
507 506 0
-505 -507 -506 0
-508 506 -509 0
508 -506 -509 0
509 -506 -508 0
508 506 509 0
-509 0
510 511 0
512 511 0
-510 -512 -511 0
-507 511 -513 0
507 -511 -513 0
513 -511 -507 0
507 511 513 0
-513 0
514 515 0
516 515 0
-514 -516 -515 0
-512 515 -517 0
512 -515 -517 0
517 -515 -512 0
512 515 517 0
-517 0
516 -518 0
518 -516 0
519 520 0
521 520 0
-519 -521 -520 0
-522 520 -523 0
522 -520 -523 0
523 -520 -522 0
522 520 523 0
-523 0
524 525 0
526 525 0
-524 -526 -525 0
-521 525 -527 0
521 -525 -527 0
527 -525 -521 0
521 525 527 0
-527 0
528 529 0
530 529 0
-528 -530 -529 0
-526 529 -531 0
526 -529 -531 0
531 -529 -526 0
526 529 531 0
-531 0
519 532 0
524 532 0
528 532 0
533 532 0
-534 0
-530 532 -535 0
530 -532 -535 0
535 -532 -530 0
530 532 535 0
-535 0
536 -2 -537 0
2 -536 -537 0
-536 -2 537 0
2 536 537 0
-537 0
538 -4 -539 0
4 -538 -539 0
-538 -4 539 0
4 538 539 0
-539 0
540 -6 -541 0
6 -540 -541 0
-540 -6 541 0
6 540 541 0
-541 0
542 -8 -543 0
8 -542 -543 0
-542 -8 543 0
8 542 543 0
-543 0
544 -10 -545 0
10 -544 -545 0
-544 -10 545 0
10 544 545 0
-545 0
546 -12 -547 0
12 -546 -547 0
-546 -12 547 0
12 546 547 0
-547 0
548 -14 -549 0
14 -548 -549 0
-548 -14 549 0
14 548 549 0
-549 0
550 -16 -551 0
16 -550 -551 0
-550 -16 551 0
16 550 551 0
-551 0
552 -18 -553 0
18 -552 -553 0
-552 -18 553 0
18 552 553 0
-553 0
554 -20 -555 0
20 -554 -555 0
-554 -20 555 0
20 554 555 0
-555 0
556 -22 -557 0
22 -556 -557 0
-556 -22 557 0
22 556 557 0
-557 0
558 -24 -559 0
24 -558 -559 0
-558 -24 559 0
24 558 559 0
-559 0
560 -26 -561 0
26 -560 -561 0
-560 -26 561 0
26 560 561 0
-561 0
562 -28 -563 0
28 -562 -563 0
-562 -28 563 0
28 562 563 0
-563 0
564 -30 -565 0
30 -564 -565 0
-564 -30 565 0
30 564 565 0
-565 0
566 -32 -567 0
32 -566 -567 0
-566 -32 567 0
32 566 567 0
-567 0
568 -34 -569 0
34 -568 -569 0
-568 -34 569 0
34 568 569 0
-569 0
570 -36 -571 0
36 -570 -571 0
-570 -36 571 0
36 570 571 0
-571 0
572 -38 -573 0
38 -572 -573 0
-572 -38 573 0
38 572 573 0
-573 0
574 -40 -575 0
40 -574 -575 0
-574 -40 575 0
40 574 575 0
-575 0
576 -42 -577 0
42 -576 -577 0
-576 -42 577 0
42 576 577 0
-577 0
578 -44 -579 0
44 -578 -579 0
-578 -44 579 0
44 578 579 0
-579 0
580 -46 -581 0
46 -580 -581 0
-580 -46 581 0
46 580 581 0
-581 0
582 -48 -583 0
48 -582 -583 0
-582 -48 583 0
48 582 583 0
-583 0
584 -50 -585 0
50 -584 -585 0
-584 -50 585 0
50 584 585 0
-585 0
586 -51 -587 0
51 -586 -587 0
-586 -51 587 0
51 586 587 0
-587 0
588 -56 -589 0
56 -588 -589 0
-588 -56 589 0
56 588 589 0
-589 0
590 -61 -591 0
61 -590 -591 0
-590 -61 591 0
61 590 591 0
-591 0
592 -63 -593 0
63 -592 -593 0
-592 -63 593 0
63 592 593 0
-593 0
594 -68 -595 0
68 -594 -595 0
-594 -68 595 0
68 594 595 0
-595 0
596 -72 -597 0
72 -596 -597 0
-596 -72 597 0
72 596 597 0
-597 0
598 -76 -599 0
76 -598 -599 0
-598 -76 599 0
76 598 599 0
-599 0
600 -81 -601 0
81 -600 -601 0
-600 -81 601 0
81 600 601 0
-601 0
602 -83 -603 0
83 -602 -603 0
-602 -83 603 0
83 602 603 0
-603 0
604 -88 -605 0
88 -604 -605 0
-604 -88 605 0
88 604 605 0
-605 0
606 -92 -607 0
92 -606 -607 0
-606 -92 607 0
92 606 607 0
-607 0
608 -96 -609 0
96 -608 -609 0
-608 -96 609 0
96 608 609 0
-609 0
610 -100 -611 0
100 -610 -611 0
-610 -100 611 0
100 610 611 0
-611 0
612 -105 -613 0
105 -612 -613 0
-612 -105 613 0
105 612 613 0
-613 0
614 -108 -615 0
108 -614 -615 0
-614 -108 615 0
108 614 615 0
-615 0
616 -113 -617 0
113 -616 -617 0
-616 -113 617 0
113 616 617 0
-617 0
618 -117 -619 0
117 -618 -619 0
-618 -117 619 0
117 618 619 0
-619 0
620 -121 -621 0
121 -620 -621 0
-620 -121 621 0
121 620 621 0
-621 0
622 -125 -623 0
125 -622 -623 0
-622 -125 623 0
125 622 623 0
-623 0
624 -130 -625 0
130 -624 -625 0
-624 -130 625 0
130 624 625 0
-625 0
626 -133 -627 0
133 -626 -627 0
-626 -133 627 0
133 626 627 0
-627 0
628 -138 -629 0
138 -628 -629 0
-628 -138 629 0
138 628 629 0
-629 0
630 -142 -631 0
142 -630 -631 0
-630 -142 631 0
142 630 631 0
-631 0
632 -146 -633 0
146 -632 -633 0
-632 -146 633 0
146 632 633 0
-633 0
634 -147 -635 0
147 -634 -635 0
-634 -147 635 0
147 634 635 0
-635 0
636 -152 -637 0
152 -636 -637 0
-636 -152 637 0
152 636 637 0
-637 0
638 -156 -639 0
156 -638 -639 0
-638 -156 639 0
156 638 639 0
-639 0
640 -160 -641 0
160 -640 -641 0
-640 -160 641 0
160 640 641 0
-641 0
642 -164 -643 0
164 -642 -643 0
-642 -164 643 0
164 642 643 0
-643 0
644 -169 -645 0
169 -644 -645 0
-644 -169 645 0
169 644 645 0
-645 0
646 -171 -647 0
171 -646 -647 0
-646 -171 647 0
171 646 647 0
-647 0
648 -176 -649 0
176 -648 -649 0
-648 -176 649 0
176 648 649 0
-649 0
650 -180 -651 0
180 -650 -651 0
-650 -180 651 0
180 650 651 0
-651 0
652 -184 -653 0
184 -652 -653 0
-652 -184 653 0
184 652 653 0
-653 0
654 -188 -655 0
188 -654 -655 0
-654 -188 655 0
188 654 655 0
-655 0
656 -189 -657 0
189 -656 -657 0
-656 -189 657 0
189 656 657 0
-657 0
658 -194 -659 0
194 -658 -659 0
-658 -194 659 0
194 658 659 0
-659 0
660 -198 -661 0
198 -660 -661 0
-660 -198 661 0
198 660 661 0
-661 0
662 -202 -663 0
202 -662 -663 0
-662 -202 663 0
202 662 663 0
-663 0
664 -206 -665 0
206 -664 -665 0
-664 -206 665 0
206 664 665 0
-665 0
666 -211 -667 0
211 -666 -667 0
-666 -211 667 0
211 666 667 0
-667 0
668 -213 -669 0
213 -668 -669 0
-668 -213 669 0
213 668 669 0
-669 0
670 -218 -671 0
218 -670 -671 0
-670 -218 671 0
218 670 671 0
-671 0
672 -222 -673 0
222 -672 -673 0
-672 -222 673 0
222 672 673 0
-673 0
674 -226 -675 0
226 -674 -675 0
-674 -226 675 0
226 674 675 0
-675 0
676 -230 -677 0
230 -676 -677 0
-676 -230 677 0
230 676 677 0
-677 0
678 -234 -679 0
234 -678 -679 0
-678 -234 679 0
234 678 679 0
-679 0
680 -238 -681 0
238 -680 -681 0
-680 -238 681 0
238 680 681 0
-681 0
682 -243 -683 0
243 -682 -683 0
-682 -243 683 0
243 682 683 0
-683 0
684 -246 -685 0
246 -684 -685 0
-684 -246 685 0
246 684 685 0
-685 0
686 -251 -687 0
251 -686 -687 0
-686 -251 687 0
251 686 687 0
-687 0
688 -255 -689 0
255 -688 -689 0
-688 -255 689 0
255 688 689 0
-689 0
690 -259 -691 0
259 -690 -691 0
-690 -259 691 0
259 690 691 0
-691 0
692 -264 -693 0
264 -692 -693 0
-692 -264 693 0
264 692 693 0
-693 0
694 -266 -695 0
266 -694 -695 0
-694 -266 695 0
266 694 695 0
-695 0
696 -272 -697 0
272 -696 -697 0
-696 -272 697 0
272 696 697 0
-697 0
698 -274 -699 0
274 -698 -699 0
-698 -274 699 0
274 698 699 0
-699 0
700 -279 -701 0
279 -700 -701 0
-700 -279 701 0
279 700 701 0
-701 0
702 -283 -703 0
283 -702 -703 0
-702 -283 703 0
283 702 703 0
-703 0
704 -287 -705 0
287 -704 -705 0
-704 -287 705 0
287 704 705 0
-705 0
706 -292 -707 0
292 -706 -707 0
-706 -292 707 0
292 706 707 0
-707 0
708 -294 -709 0
294 -708 -709 0
-708 -294 709 0
294 708 709 0
-709 0
710 -299 -711 0
299 -710 -711 0
-710 -299 711 0
299 710 711 0
-711 0
712 -303 -713 0
303 -712 -713 0
-712 -303 713 0
303 712 713 0
-713 0
714 -307 -715 0
307 -714 -715 0
-714 -307 715 0
307 714 715 0
-715 0
716 -311 -717 0
311 -716 -717 0
-716 -311 717 0
311 716 717 0
-717 0
718 -316 -719 0
316 -718 -719 0
-718 -316 719 0
316 718 719 0
-719 0
720 -318 -721 0
318 -720 -721 0
-720 -318 721 0
318 720 721 0
-721 0
722 -323 -723 0
323 -722 -723 0
-722 -323 723 0
323 722 723 0
-723 0
724 -327 -725 0
327 -724 -725 0
-724 -327 725 0
327 724 725 0
-725 0
726 -331 -727 0
331 -726 -727 0
-726 -331 727 0
331 726 727 0
-727 0
728 -336 -729 0
336 -728 -729 0
-728 -336 729 0
336 728 729 0
-729 0
730 -338 -731 0
338 -730 -731 0
-730 -338 731 0
338 730 731 0
-731 0
732 -343 -733 0
343 -732 -733 0
-732 -343 733 0
343 732 733 0
-733 0
734 -347 -735 0
347 -734 -735 0
-734 -347 735 0
347 734 735 0
-735 0
736 -351 -737 0
351 -736 -737 0
-736 -351 737 0
351 736 737 0
-737 0
738 -355 -739 0
355 -738 -739 0
-738 -355 739 0
355 738 739 0
-739 0
740 -359 -741 0
359 -740 -741 0
-740 -359 741 0
359 740 741 0
-741 0
742 -364 -743 0
364 -742 -743 0
-742 -364 743 0
364 742 743 0
-743 0
744 -366 -745 0
366 -744 -745 0
-744 -366 745 0
366 744 745 0
-745 0
746 -371 -747 0
371 -746 -747 0
-746 -371 747 0
371 746 747 0
-747 0
748 -375 -749 0
375 -748 -749 0
-748 -375 749 0
375 748 749 0
-749 0
750 -379 -751 0
379 -750 -751 0
-750 -379 751 0
379 750 751 0
-751 0
752 -383 -753 0
383 -752 -753 0
-752 -383 753 0
383 752 753 0
-753 0
754 -387 -755 0
387 -754 -755 0
-754 -387 755 0
387 754 755 0
-755 0
756 -391 -757 0
391 -756 -757 0
-756 -391 757 0
391 756 757 0
-757 0
758 -396 -759 0
396 -758 -759 0
-758 -396 759 0
396 758 759 0
-759 0
760 -399 -761 0
399 -760 -761 0
-760 -399 761 0
399 760 761 0
-761 0
762 -404 -763 0
404 -762 -763 0
-762 -404 763 0
404 762 763 0
-763 0
764 -408 -765 0
408 -764 -765 0
-764 -408 765 0
408 764 765 0
-765 0
766 -412 -767 0
412 -766 -767 0
-766 -412 767 0
412 766 767 0
-767 0
768 -416 -769 0
416 -768 -769 0
-768 -416 769 0
416 768 769 0
-769 0
770 -421 -771 0
421 -770 -771 0
-770 -421 771 0
421 770 771 0
-771 0
772 -424 -773 0
424 -772 -773 0
-772 -424 773 0
424 772 773 0
-773 0
774 -429 -775 0
429 -774 -775 0
-774 -429 775 0
429 774 775 0
-775 0
776 -433 -777 0
433 -776 -777 0
-776 -433 777 0
433 776 777 0
-777 0
778 -437 -779 0
437 -778 -779 0
-778 -437 779 0
437 778 779 0
-779 0
780 -441 -781 0
441 -780 -781 0
-780 -441 781 0
441 780 781 0
-781 0
782 -446 -783 0
446 -782 -783 0
-782 -446 783 0
446 782 783 0
-783 0
784 -448 -785 0
448 -784 -785 0
-784 -448 785 0
448 784 785 0
-785 0
786 -453 -787 0
453 -786 -787 0
-786 -453 787 0
453 786 787 0
-787 0
788 -457 -789 0
457 -788 -789 0
-788 -457 789 0
457 788 789 0
-789 0
790 -462 -791 0
462 -790 -791 0
-790 -462 791 0
462 790 791 0
-791 0
792 -465 -793 0
465 -792 -793 0
-792 -465 793 0
465 792 793 0
-793 0
794 -470 -795 0
470 -794 -795 0
-794 -470 795 0
470 794 795 0
-795 0
796 -474 -797 0
474 -796 -797 0
-796 -474 797 0
474 796 797 0
-797 0
798 -475 -799 0
475 -798 -799 0
-798 -475 799 0
475 798 799 0
-799 0
800 -480 -801 0
480 -800 -801 0
-800 -480 801 0
480 800 801 0
-801 0
802 -484 -803 0
484 -802 -803 0
-802 -484 803 0
484 802 803 0
-803 0
804 -488 -805 0
488 -804 -805 0
-804 -488 805 0
488 804 805 0
-805 0
806 -489 -807 0
489 -806 -807 0
-806 -489 807 0
489 806 807 0
-807 0
808 -494 -809 0
494 -808 -809 0
-808 -494 809 0
494 808 809 0
-809 0
810 -495 -811 0
495 -810 -811 0
-810 -495 811 0
495 810 811 0
-811 0
812 -500 -813 0
500 -812 -813 0
-812 -500 813 0
500 812 813 0
-813 0
814 -504 -815 0
504 -814 -815 0
-814 -504 815 0
504 814 815 0
-815 0
816 -505 -817 0
505 -816 -817 0
-816 -505 817 0
505 816 817 0
-817 0
818 -510 -819 0
510 -818 -819 0
-818 -510 819 0
510 818 819 0
-819 0
820 -514 -821 0
514 -820 -821 0
-820 -514 821 0
514 820 821 0
-821 0
822 -518 -823 0
518 -822 -823 0
-822 -518 823 0
518 822 823 0
-823 0
824 -519 -825 0
519 -824 -825 0
-824 -519 825 0
519 824 825 0
-825 0
826 -524 -827 0
524 -826 -827 0
-826 -524 827 0
524 826 827 0
-827 0
828 -528 -829 0
528 -828 -829 0
-828 -528 829 0
528 828 829 0
-829 0
830 -533 -831 0
533 -830 -831 0
-830 -533 831 0
533 830 831 0
-831 0
1 0
3 0
5 0
7 0
9 0
11 0
13 0
15 0
17 0
19 0
21 0
23 0
25 0
27 0
29 0
31 0
33 0
35 0
37 0
39 0
41 0
43 0
45 0
47 0
49 0
-54 0
-66 0
-86 0
-111 0
-136 0
-150 0
-174 0
-192 0
-216 0
-249 0
-269 0
-277 0
-297 0
-321 0
-341 0
-369 0
-402 0
-427 0
-451 0
-468 0
-478 0
-492 0
-498 0
-508 0
-522 0
536 -538 0
-536 538 0
536 -540 0
-536 540 0
536 -542 0
-536 542 0
536 -544 0
-536 544 0
536 -546 0
-536 546 0
536 -548 0
-536 548 0
536 -550 0
-536 550 0
536 -552 0
-536 552 0
536 -554 0
-536 554 0
536 -556 0
-536 556 0
536 -558 0
-536 558 0
536 -560 0
-536 560 0
536 -562 0
-536 562 0
536 -564 0
-536 564 0
536 -566 0
-536 566 0
536 -568 0
-536 568 0
536 -570 0
-536 570 0
536 -572 0
-536 572 0
536 -574 0
-536 574 0
536 -576 0
-536 576 0
536 -578 0
-536 578 0
536 -580 0
-536 580 0
536 -582 0
-536 582 0
536 -584 0
-536 584 0
536 -632 0
-536 632 0
536 -654 0
-536 654 0
536 -796 0
-536 796 0
536 -814 0
-536 814 0
538 -540 0
-538 540 0
538 -542 0
-538 542 0
538 -544 0
-538 544 0
538 -546 0
-538 546 0
538 -548 0
-538 548 0
538 -550 0
-538 550 0
538 -552 0
-538 552 0
538 -554 0
-538 554 0
538 -556 0
-538 556 0
538 -558 0
-538 558 0
538 -560 0
-538 560 0
538 -562 0
-538 562 0
538 -564 0
-538 564 0
538 -566 0
-538 566 0
538 -568 0
-538 568 0
538 -570 0
-538 570 0
538 -572 0
-538 572 0
538 -574 0
-538 574 0
538 -576 0
-538 576 0
538 -578 0
-538 578 0
538 -580 0
-538 580 0
538 -582 0
-538 582 0
538 -584 0
-538 584 0
538 -632 0
-538 632 0
538 -654 0
-538 654 0
538 -796 0
-538 796 0
538 -814 0
-538 814 0
540 -542 0
-540 542 0
540 -544 0
-540 544 0
540 -546 0
-540 546 0
540 -548 0
-540 548 0
540 -550 0
-540 550 0
540 -552 0
-540 552 0
540 -554 0
-540 554 0
540 -556 0
-540 556 0
540 -558 0
-540 558 0
540 -560 0
-540 560 0
540 -562 0
-540 562 0
540 -564 0
-540 564 0
540 -566 0
-540 566 0
540 -568 0
-540 568 0
540 -570 0
-540 570 0
540 -572 0
-540 572 0
540 -574 0
-540 574 0
540 -576 0
-540 576 0
540 -578 0
-540 578 0
540 -580 0
-540 580 0
540 -582 0
-540 582 0
540 -584 0
-540 584 0
540 -632 0
-540 632 0
540 -654 0
-540 654 0
540 -796 0
-540 796 0
540 -814 0
-540 814 0
542 -544 0
-542 544 0
542 -546 0
-542 546 0
542 -548 0
-542 548 0
542 -550 0
-542 550 0
542 -552 0
-542 552 0
542 -554 0
-542 554 0
542 -556 0
-542 556 0
542 -558 0
-542 558 0
542 -560 0
-542 560 0
542 -562 0
-542 562 0
542 -564 0
-542 564 0
542 -566 0
-542 566 0
542 -568 0
-542 568 0
542 -570 0
-542 570 0
542 -572 0
-542 572 0
542 -574 0
-542 574 0
542 -576 0
-542 576 0
542 -578 0
-542 578 0
542 -580 0
-542 580 0
542 -582 0
-542 582 0
542 -584 0
-542 584 0
542 -632 0
-542 632 0
542 -654 0
-542 654 0
542 -796 0
-542 796 0
542 -814 0
-542 814 0
544 -546 0
-544 546 0
544 -548 0
-544 548 0
544 -550 0
-544 550 0
544 -552 0
-544 552 0
544 -554 0
-544 554 0
544 -556 0
-544 556 0
544 -558 0
-544 558 0
544 -560 0
-544 560 0
544 -562 0
-544 562 0
544 -564 0
-544 564 0
544 -566 0
-544 566 0
544 -568 0
-544 568 0
544 -570 0
-544 570 0
544 -572 0
-544 572 0
544 -574 0
-544 574 0
544 -576 0
-544 576 0
544 -578 0
-544 578 0
544 -580 0
-544 580 0
544 -582 0
-544 582 0
544 -584 0
-544 584 0
544 -632 0
-544 632 0
544 -654 0
-544 654 0
544 -796 0
-544 796 0
544 -814 0
-544 814 0
546 -548 0
-546 548 0
546 -550 0
-546 550 0
546 -552 0
-546 552 0
546 -554 0
-546 554 0
546 -556 0
-546 556 0
546 -558 0
-546 558 0
546 -560 0
-546 560 0
546 -562 0
-546 562 0
546 -564 0
-546 564 0
546 -566 0
-546 566 0
546 -568 0
-546 568 0
546 -570 0
-546 570 0
546 -572 0
-546 572 0
546 -574 0
-546 574 0
546 -576 0
-546 576 0
546 -578 0
-546 578 0
546 -580 0
-546 580 0
546 -582 0
-546 582 0
546 -584 0
-546 584 0
546 -632 0
-546 632 0
546 -654 0
-546 654 0
546 -796 0
-546 796 0
546 -814 0
-546 814 0
548 -550 0
-548 550 0
548 -552 0
-548 552 0
548 -554 0
-548 554 0
548 -556 0
-548 556 0
548 -558 0
-548 558 0
548 -560 0
-548 560 0
548 -562 0
-548 562 0
548 -564 0
-548 564 0
548 -566 0
-548 566 0
548 -568 0
-548 568 0
548 -570 0
-548 570 0
548 -572 0
-548 572 0
548 -574 0
-548 574 0
548 -576 0
-548 576 0
548 -578 0
-548 578 0
548 -580 0
-548 580 0
548 -582 0
-548 582 0
548 -584 0
-548 584 0
548 -632 0
-548 632 0
548 -654 0
-548 654 0
548 -796 0
-548 796 0
548 -814 0
-548 814 0
550 -552 0
-550 552 0
550 -554 0
-550 554 0
550 -556 0
-550 556 0
550 -558 0
-550 558 0
550 -560 0
-550 560 0
550 -562 0
-550 562 0
550 -564 0
-550 564 0
550 -566 0
-550 566 0
550 -568 0
-550 568 0
550 -570 0
-550 570 0
550 -572 0
-550 572 0
550 -574 0
-550 574 0
550 -576 0
-550 576 0
550 -578 0
-550 578 0
550 -580 0
-550 580 0
550 -582 0
-550 582 0
550 -584 0
-550 584 0
550 -632 0
-550 632 0
550 -654 0
-550 654 0
550 -796 0
-550 796 0
550 -814 0
-550 814 0
552 -554 0
-552 554 0
552 -556 0
-552 556 0
552 -558 0
-552 558 0
552 -560 0
-552 560 0
552 -562 0
-552 562 0
552 -564 0
-552 564 0
552 -566 0
-552 566 0
552 -568 0
-552 568 0
552 -570 0
-552 570 0
552 -572 0
-552 572 0
552 -574 0
-552 574 0
552 -576 0
-552 576 0
552 -578 0
-552 578 0
552 -580 0
-552 580 0
552 -582 0
-552 582 0
552 -584 0
-552 584 0
552 -632 0
-552 632 0
552 -654 0
-552 654 0
552 -796 0
-552 796 0
552 -814 0
-552 814 0
554 -556 0
-554 556 0
554 -558 0
-554 558 0
554 -560 0
-554 560 0
554 -562 0
-554 562 0
554 -564 0
-554 564 0
554 -566 0
-554 566 0
554 -568 0
-554 568 0
554 -570 0
-554 570 0
554 -572 0
-554 572 0
554 -574 0
-554 574 0
554 -576 0
-554 576 0
554 -578 0
-554 578 0
554 -580 0
-554 580 0
554 -582 0
-554 582 0
554 -584 0
-554 584 0
554 -632 0
-554 632 0
554 -654 0
-554 654 0
554 -796 0
-554 796 0
554 -814 0
-554 814 0
556 -558 0
-556 558 0
556 -560 0
-556 560 0
556 -562 0
-556 562 0
556 -564 0
-556 564 0
556 -566 0
-556 566 0
556 -568 0
-556 568 0
556 -570 0
-556 570 0
556 -572 0
-556 572 0
556 -574 0
-556 574 0
556 -576 0
-556 576 0
556 -578 0
-556 578 0
556 -580 0
-556 580 0
556 -582 0
-556 582 0
556 -584 0
-556 584 0
556 -632 0
-556 632 0
556 -654 0
-556 654 0
556 -796 0
-556 796 0
556 -814 0
-556 814 0
558 -560 0
-558 560 0
558 -562 0
-558 562 0
558 -564 0
-558 564 0
558 -566 0
-558 566 0
558 -568 0
-558 568 0
558 -570 0
-558 570 0
558 -572 0
-558 572 0
558 -574 0
-558 574 0
558 -576 0
-558 576 0
558 -578 0
-558 578 0
558 -580 0
-558 580 0
558 -582 0
-558 582 0
558 -584 0
-558 584 0
558 -632 0
-558 632 0
558 -654 0
-558 654 0
558 -796 0
-558 796 0
558 -814 0
-558 814 0
560 -562 0
-560 562 0
560 -564 0
-560 564 0
560 -566 0
-560 566 0
560 -568 0
-560 568 0
560 -570 0
-560 570 0
560 -572 0
-560 572 0
560 -574 0
-560 574 0
560 -576 0
-560 576 0
560 -578 0
-560 578 0
560 -580 0
-560 580 0
560 -582 0
-560 582 0
560 -584 0
-560 584 0
560 -632 0
-560 632 0
560 -654 0
-560 654 0
560 -796 0
-560 796 0
560 -814 0
-560 814 0
562 -564 0
-562 564 0
562 -566 0
-562 566 0
562 -568 0
-562 568 0
562 -570 0
-562 570 0
562 -572 0
-562 572 0
562 -574 0
-562 574 0
562 -576 0
-562 576 0
562 -578 0
-562 578 0
562 -580 0
-562 580 0
562 -582 0
-562 582 0
562 -584 0
-562 584 0
562 -632 0
-562 632 0
562 -654 0
-562 654 0
562 -796 0
-562 796 0
562 -814 0
-562 814 0
564 -566 0
-564 566 0
564 -568 0
-564 568 0
564 -570 0
-564 570 0
564 -572 0
-564 572 0
564 -574 0
-564 574 0
564 -576 0
-564 576 0
564 -578 0
-564 578 0
564 -580 0
-564 580 0
564 -582 0
-564 582 0
564 -584 0
-564 584 0
564 -632 0
-564 632 0
564 -654 0
-564 654 0
564 -796 0
-564 796 0
564 -814 0
-564 814 0
566 -568 0
-566 568 0
566 -570 0
-566 570 0
566 -572 0
-566 572 0
566 -574 0
-566 574 0
566 -576 0
-566 576 0
566 -578 0
-566 578 0
566 -580 0
-566 580 0
566 -582 0
-566 582 0
566 -584 0
-566 584 0
566 -632 0
-566 632 0
566 -654 0
-566 654 0
566 -796 0
-566 796 0
566 -814 0
-566 814 0
568 -570 0
-568 570 0
568 -572 0
-568 572 0
568 -574 0
-568 574 0
568 -576 0
-568 576 0
568 -578 0
-568 578 0
568 -580 0
-568 580 0
568 -582 0
-568 582 0
568 -584 0
-568 584 0
568 -632 0
-568 632 0
568 -654 0
-568 654 0
568 -796 0
-568 796 0
568 -814 0
-568 814 0
570 -572 0
-570 572 0
570 -574 0
-570 574 0
570 -576 0
-570 576 0
570 -578 0
-570 578 0
570 -580 0
-570 580 0
570 -582 0
-570 582 0
570 -584 0
-570 584 0
570 -632 0
-570 632 0
570 -654 0
-570 654 0
570 -796 0
-570 796 0
570 -814 0
-570 814 0
572 -574 0
-572 574 0
572 -576 0
-572 576 0
572 -578 0
-572 578 0
572 -580 0
-572 580 0
572 -582 0
-572 582 0
572 -584 0
-572 584 0
572 -632 0
-572 632 0
572 -654 0
-572 654 0
572 -796 0
-572 796 0
572 -814 0
-572 814 0
574 -576 0
-574 576 0
574 -578 0
-574 578 0
574 -580 0
-574 580 0
574 -582 0
-574 582 0
574 -584 0
-574 584 0
574 -632 0
-574 632 0
574 -654 0
-574 654 0
574 -796 0
-574 796 0
574 -814 0
-574 814 0
576 -578 0
-576 578 0
576 -580 0
-576 580 0
576 -582 0
-576 582 0
576 -584 0
-576 584 0
576 -632 0
-576 632 0
576 -654 0
-576 654 0
576 -796 0
-576 796 0
576 -814 0
-576 814 0
578 -580 0
-578 580 0
578 -582 0
-578 582 0
578 -584 0
-578 584 0
578 -632 0
-578 632 0
578 -654 0
-578 654 0
578 -796 0
-578 796 0
578 -814 0
-578 814 0
580 -582 0
-580 582 0
580 -584 0
-580 584 0
580 -632 0
-580 632 0
580 -654 0
-580 654 0
580 -796 0
-580 796 0
580 -814 0
-580 814 0
582 -584 0
-582 584 0
582 -632 0
-582 632 0
582 -654 0
-582 654 0
582 -796 0
-582 796 0
582 -814 0
-582 814 0
584 -632 0
-584 632 0
584 -654 0
-584 654 0
584 -796 0
-584 796 0
584 -814 0
-584 814 0
586 -596 0
-586 596 0
588 -598 0
-588 598 0
590 -600 0
-590 600 0
588 -692 0
-588 692 0
590 -690 0
-590 690 0
588 -696 0
-588 696 0
590 -694 0
-590 694 0
586 -724 0
-586 724 0
588 -726 0
-588 726 0
590 -728 0
-590 728 0
598 -692 0
-598 692 0
600 -690 0
-600 690 0
598 -696 0
-598 696 0
600 -694 0
-600 694 0
594 -722 0
-594 722 0
596 -724 0
-596 724 0
598 -726 0
-598 726 0
600 -728 0
-600 728 0
606 -754 0
-606 754 0
608 -756 0
-608 756 0
610 -758 0
-610 758 0
612 -752 0
-612 752 0
606 -770 0
-606 770 0
608 -764 0
-608 764 0
610 -766 0
-610 766 0
612 -768 0
-612 768 0
606 -786 0
-606 786 0
608 -788 0
-608 788 0
610 -790 0
-610 790 0
612 -784 0
-612 784 0
618 -682 0
-618 682 0
620 -676 0
-620 676 0
622 -678 0
-622 678 0
624 -680 0
-624 680 0
628 -650 0
-628 650 0
630 -652 0
-630 652 0
632 -654 0
-632 654 0
628 -792 0
-628 792 0
630 -794 0
-630 794 0
632 -796 0
-632 796 0
628 -810 0
-628 810 0
630 -812 0
-630 812 0
632 -814 0
-632 814 0
638 -660 0
-638 660 0
640 -662 0
-640 662 0
642 -664 0
-642 664 0
644 -666 0
-644 666 0
640 -704 0
-640 704 0
642 -706 0
-642 706 0
644 -702 0
-644 702 0
634 -708 0
-634 708 0
636 -710 0
-636 710 0
638 -712 0
-638 712 0
640 -714 0
-640 714 0
642 -716 0
-642 716 0
644 -718 0
-644 718 0
640 -782 0
-640 782 0
642 -778 0
-642 778 0
644 -780 0
-644 780 0
650 -792 0
-650 792 0
652 -794 0
-652 794 0
654 -796 0
-654 796 0
650 -810 0
-650 810 0
652 -812 0
-652 812 0
654 -814 0
-654 814 0
662 -704 0
-662 704 0
664 -706 0
-664 706 0
666 -702 0
-666 702 0
660 -712 0
-660 712 0
662 -714 0
-662 714 0
664 -716 0
-664 716 0
666 -718 0
-666 718 0
662 -782 0
-662 782 0
664 -778 0
-664 778 0
666 -780 0
-666 780 0
690 -694 0
-690 694 0
692 -696 0
-692 696 0
690 -728 0
-690 728 0
692 -726 0
-692 726 0
694 -728 0
-694 728 0
696 -726 0
-696 726 0
702 -718 0
-702 718 0
704 -714 0
-704 714 0
706 -716 0
-706 716 0
702 -780 0
-702 780 0
704 -782 0
-704 782 0
706 -778 0
-706 778 0
714 -782 0
-714 782 0
716 -778 0
-716 778 0
718 -780 0
-718 780 0
752 -768 0
-752 768 0
754 -770 0
-754 770 0
756 -764 0
-756 764 0
758 -766 0
-758 766 0
752 -784 0
-752 784 0
754 -786 0
-754 786 0
756 -788 0
-756 788 0
758 -790 0
-758 790 0
764 -788 0
-764 788 0
766 -790 0
-766 790 0
768 -784 0
-768 784 0
770 -786 0
-770 786 0
792 -810 0
-792 810 0
794 -812 0
-794 812 0
796 -814 0
-796 814 0
802 -806 0
-802 806 0
804 -808 0
-804 808 0
798 -816 0
-798 816 0
800 -818 0
-800 818 0
802 -820 0
-802 820 0
804 -822 0
-804 822 0
806 -820 0
-806 820 0
808 -822 0
-808 822 0
